1387
12 70 19 2 83 14 24 89 1 93 50 66 21 4 73 36 30 52 22 80 29 47 57 25 84 37 11 86 72 35 49 28 13 60 34 96 45 55 51 76 75 38 32 43 8 98 85 71 42 6 16 91 61 97 18 9 7 27 67 46 63 15 39 82 59 5 62 79 99 10 56 88 53 77 65 23 90 17 64 31 92 48 95 87 74 40 54 58 3 94 26 78 81 68 41 69 20 44 33 
